26
1
10
5
21
18
9
5
18
0
8
18
16
20
19
8
15
9
3
11
11
5
17
21
14
2
2
22
13
20
3
19
21
3
23
1
7
20
21
19
17
13
23
15
12
11
15
14
1
6
15
2
8
6
8
4
4
0
19
24
22
17
5
9
7
4
15
25
14
12
1
7
7
16
3
0
14
10
1
13
25
2
4
13
10
9
22
8
12
10
6
20
11
11
23
12
12
16
6
24
19